1 29 
80 67 
48 91 
0 1 
48 84 
83 37 
45 17 
14 29 
9 59 
33 70 
5 92 
16 36 
25 50 
1 80 
34 29 
19 35 
11 51 
54 59 
43 7 
12 43 
91 96 
81 88 
65 95 
17 26 
7 2 
96 64 
94 12 
1 72 
14 54 
4 48 
83 24 
84 94 
27 38 
6 70 
45 70 
14 88 
18 47 
77 84 
94 46 
10 1 
1 7 
66 47 
71 19 
19 86 
73 76 
34 8 
52 18 
55 79 
9 61 
2 6 
